g3 1 1 0	# problem unknown
 212 96 1 0 96 	# vars, constraints, objectives, ranges, eqns
 0 1 0 0 0 0	# nonlinear constrs, objs; ccons: lin, nonlin, nd, nzlb
 0 0	# network constraints: nonlinear, linear
 0 180 0 	# nonlinear vars in constraints, objectives, both
 0 0 0 1	# linear network variables; functions; arith, flags
 0 0 0 0 0 	# discrete variables: binary, integer, nonlinear (b,c,o)
 384 180 	# nonzeros in Jacobian, obj. gradient
 0 0	# max name lengths: constraints, variables
 0 0 0 0 0	# common exprs: b,c,o,c1,o1
C0
n0
C1
n0
C2
n0
C3
n0
C4
n0
C5
n0
C6
n0
C7
n0
C8
n0
C9
n0
C10
n0
C11
n0
C12
n0
C13
n0
C14
n0
C15
n0
C16
n0
C17
n0
C18
n0
C19
n0
C20
n0
C21
n0
C22
n0
C23
n0
C24
n0
C25
n0
C26
n0
C27
n0
C28
n0
C29
n0
C30
n0
C31
n0
C32
n0
C33
n0
C34
n0
C35
n0
C36
n0
C37
n0
C38
n0
C39
n0
C40
n0
C41
n0
C42
n0
C43
n0
C44
n0
C45
n0
C46
n0
C47
n0
C48
n0
C49
n0
C50
n0
C51
n0
C52
n0
C53
n0
C54
n0
C55
n0
C56
n0
C57
n0
C58
n0
C59
n0
C60
n0
C61
n0
C62
n0
C63
n0
C64
n0
C65
n0
C66
n0
C67
n0
C68
n0
C69
n0
C70
n0
C71
n0
C72
n0
C73
n0
C74
n0
C75
n0
C76
n0
C77
n0
C78
n0
C79
n0
C80
n0
C81
n0
C82
n0
C83
n0
C84
n0
C85
n0
C86
n0
C87
n0
C88
n0
C89
n0
C90
n0
C91
n0
C92
n0
C93
n0
C94
n0
C95
n0
O0 0
o54
180
o2
n0.5
o5
o0
v0
n-1
n2
o2
n0.5
o5
o0
v1
n-1
n2
o2
n0.5
o5
o0
v2
n-1
n2
o2
n0.5
o5
o0
v3
n-1
n2
o2
n0.5
o5
o0
v4
n-1
n2
o2
n0.5
o5
o0
v5
n-1
n2
o2
n0.5
o5
o0
v6
n-1
n2
o2
n0.5
o5
o0
v7
n-1
n2
o2
n0.5
o5
o0
v8
n-1
n2
o2
n0.5
o5
o0
v10
n-1
n2
o2
n0.5
o5
o0
v11
n-1
n2
o2
n0.5
o5
o0
v12
n-1
n2
o2
n0.5
o5
o0
v13
n-1
n2
o2
n0.5
o5
o0
v14
n-1
n2
o2
n0.5
o5
o0
v15
n-1
n2
o2
n0.5
o5
o0
v16
n-1
n2
o2
n0.5
o5
o0
v17
n-1
n2
o2
n0.5
o5
o0
v18
n-1
n2
o2
n0.5
o5
o0
v20
n-1
n2
o2
n0.5
o5
o0
v21
n-1
n2
o2
n0.5
o5
o0
v22
n-1
n2
o2
n0.5
o5
o0
v23
n-1
n2
o2
n0.5
o5
o0
v24
n-1
n2
o2
n0.5
o5
o0
v25
n-1
n2
o2
n0.5
o5
o0
v26
n-1
n2
o2
n0.5
o5
o0
v27
n-1
n2
o2
n0.5
o5
o0
v28
n-1
n2
o2
n0.5
o5
o0
v30
n-1
n2
o2
n0.5
o5
o0
v31
n-1
n2
o2
n0.5
o5
o0
v32
n-1
n2
o2
n0.5
o5
o0
v33
n-1
n2
o2
n0.5
o5
o0
v34
n-1
n2
o2
n0.5
o5
o0
v35
n-1
n2
o2
n0.5
o5
o0
v36
n-1
n2
o2
n0.5
o5
o0
v37
n-1
n2
o2
n0.5
o5
o0
v38
n-1
n2
o2
n0.5
o5
o0
v40
n-1
n2
o2
n0.5
o5
o0
v41
n-1
n2
o2
n0.5
o5
o0
v42
n-1
n2
o2
n0.5
o5
o0
v43
n-1
n2
o2
n0.5
o5
o0
v44
n-1
n2
o2
n0.5
o5
o0
v45
n-1
n2
o2
n0.5
o5
o0
v46
n-1
n2
o2
n0.5
o5
o0
v47
n-1
n2
o2
n0.5
o5
o0
v48
n-1
n2
o2
n0.5
o5
o0
v50
n-1
n2
o2
n0.5
o5
o0
v51
n-1
n2
o2
n0.5
o5
o0
v52
n-1
n2
o2
n0.5
o5
o0
v53
n-1
n2
o2
n0.5
o5
o0
v54
n-1
n2
o2
n0.5
o5
o0
v55
n-1
n2
o2
n0.5
o5
o0
v56
n-1
n2
o2
n0.5
o5
o0
v57
n-1
n2
o2
n0.5
o5
o0
v58
n-1
n2
o2
n0.5
o5
o0
v60
n-1
n2
o2
n0.5
o5
o0
v61
n-1
n2
o2
n0.5
o5
o0
v62
n-1
n2
o2
n0.5
o5
o0
v63
n-1
n2
o2
n0.5
o5
o0
v64
n-1
n2
o2
n0.5
o5
o0
v65
n-1
n2
o2
n0.5
o5
o0
v66
n-1
n2
o2
n0.5
o5
o0
v67
n-1
n2
o2
n0.5
o5
o0
v68
n-1
n2
o2
n0.5
o5
o0
v70
n-1
n2
o2
n0.5
o5
o0
v71
n-1
n2
o2
n0.5
o5
o0
v72
n-1
n2
o2
n0.5
o5
o0
v73
n-1
n2
o2
n0.5
o5
o0
v74
n-1
n2
o2
n0.5
o5
o0
v75
n-1
n2
o2
n0.5
o5
o0
v76
n-1
n2
o2
n0.5
o5
o0
v77
n-1
n2
o2
n0.5
o5
o0
v78
n-1
n2
o2
n0.5
o5
o0
v80
n-1
n2
o2
n0.5
o5
o0
v81
n-1
n2
o2
n0.5
o5
o0
v82
n-1
n2
o2
n0.5
o5
o0
v83
n-1
n2
o2
n0.5
o5
o0
v84
n-1
n2
o2
n0.5
o5
o0
v85
n-1
n2
o2
n0.5
o5
o0
v86
n-1
n2
o2
n0.5
o5
o0
v87
n-1
n2
o2
n0.5
o5
o0
v88
n-1
n2
o2
n0.5
o5
o0
v90
n-1
n2
o2
n0.5
o5
o0
v91
n-1
n2
o2
n0.5
o5
o0
v92
n-1
n2
o2
n0.5
o5
o0
v93
n-1
n2
o2
n0.5
o5
o0
v94
n-1
n2
o2
n0.5
o5
o0
v95
n-1
n2
o2
n0.5
o5
o0
v96
n-1
n2
o2
n0.5
o5
o0
v97
n-1
n2
o2
n0.5
o5
o0
v98
n-1
n2
o2
n0.5
o5
o0
v99
n-1
n2
o2
n0.5
o5
o0
v100
n-1
n2
o2
n0.5
o5
o0
v101
n-1
n2
o2
n0.5
o5
o0
v102
n-1
n2
o2
n0.5
o5
o0
v103
n-1
n2
o2
n0.5
o5
o0
v104
n-1
n2
o2
n0.5
o5
o0
v105
n-1
n2
o2
n0.5
o5
o0
v106
n-1
n2
o2
n0.5
o5
o0
v107
n-1
n2
o2
n0.5
o5
o0
v108
n-1
n2
o2
n0.5
o5
o0
v109
n-1
n2
o2
n0.5
o5
o0
v110
n-1
n2
o2
n0.5
o5
o0
v111
n-1
n2
o2
n0.5
o5
o0
v112
n-1
n2
o2
n0.5
o5
o0
v113
n-1
n2
o2
n0.5
o5
o0
v114
n-1
n2
o2
n0.5
o5
o0
v115
n-1
n2
o2
n0.5
o5
o0
v116
n-1
n2
o2
n0.5
o5
o0
v117
n-1
n2
o2
n0.5
o5
o0
v118
n-1
n2
o2
n0.5
o5
o0
v119
n-1
n2
o2
n0.5
o5
o0
v120
n-1
n2
o2
n0.5
o5
o0
v121
n-1
n2
o2
n0.5
o5
o0
v122
n-1
n2
o2
n0.5
o5
o0
v123
n-1
n2
o2
n0.5
o5
o0
v124
n-1
n2
o2
n0.5
o5
o0
v125
n-1
n2
o2
n0.5
o5
o0
v126
n-1
n2
o2
n0.5
o5
o0
v127
n-1
n2
o2
n0.5
o5
o0
v128
n-1
n2
o2
n0.5
o5
o0
v129
n-1
n2
o2
n0.5
o5
o0
v130
n-1
n2
o2
n0.5
o5
o0
v131
n-1
n2
o2
n0.5
o5
o0
v132
n-1
n2
o2
n0.5
o5
o0
v133
n-1
n2
o2
n0.5
o5
o0
v134
n-1
n2
o2
n0.5
o5
o0
v135
n-1
n2
o2
n0.5
o5
o0
v136
n-1
n2
o2
n0.5
o5
o0
v137
n-1
n2
o2
n0.5
o5
o0
v138
n-1
n2
o2
n0.5
o5
o0
v139
n-1
n2
o2
n0.5
o5
o0
v140
n-1
n2
o2
n0.5
o5
o0
v141
n-1
n2
o2
n0.5
o5
o0
v142
n-1
n2
o2
n0.5
o5
o0
v143
n-1
n2
o2
n0.5
o5
o0
v144
n-1
n2
o2
n0.5
o5
o0
v145
n-1
n2
o2
n0.5
o5
o0
v146
n-1
n2
o2
n0.5
o5
o0
v147
n-1
n2
o2
n0.5
o5
o0
v148
n-1
n2
o2
n0.5
o5
o0
v149
n-1
n2
o2
n0.5
o5
o0
v150
n-1
n2
o2
n0.5
o5
o0
v151
n-1
n2
o2
n0.5
o5
o0
v152
n-1
n2
o2
n0.5
o5
o0
v153
n-1
n2
o2
n0.5
o5
o0
v154
n-1
n2
o2
n0.5
o5
o0
v155
n-1
n2
o2
n0.5
o5
o0
v156
n-1
n2
o2
n0.5
o5
o0
v157
n-1
n2
o2
n0.5
o5
o0
v158
n-1
n2
o2
n0.5
o5
o0
v159
n-1
n2
o2
n0.5
o5
o0
v160
n-1
n2
o2
n0.5
o5
o0
v161
n-1
n2
o2
n0.5
o5
o0
v162
n-1
n2
o2
n0.5
o5
o0
v163
n-1
n2
o2
n0.5
o5
o0
v164
n-1
n2
o2
n0.5
o5
o0
v165
n-1
n2
o2
n0.5
o5
o0
v166
n-1
n2
o2
n0.5
o5
o0
v167
n-1
n2
o2
n0.5
o5
o0
v168
n-1
n2
o2
n0.5
o5
o0
v169
n-1
n2
o2
n0.5
o5
o0
v170
n-1
n2
o2
n0.5
o5
o0
v9
n-1
n2
o2
n0.5
o5
o0
v19
n-1
n2
o2
n0.5
o5
o0
v29
n-1
n2
o2
n0.5
o5
o0
v39
n-1
n2
o2
n0.5
o5
o0
v49
n-1
n2
o2
n0.5
o5
o0
v59
n-1
n2
o2
n0.5
o5
o0
v69
n-1
n2
o2
n0.5
o5
o0
v79
n-1
n2
o2
n0.5
o5
o0
v89
n-1
n2
o2
n0.5
o5
o0
v171
n-1
n2
o2
n0.5
o5
o0
v172
n-1
n2
o2
n0.5
o5
o0
v173
n-1
n2
o2
n0.5
o5
o0
v174
n-1
n2
o2
n0.5
o5
o0
v175
n-1
n2
o2
n0.5
o5
o0
v176
n-1
n2
o2
n0.5
o5
o0
v177
n-1
n2
o2
n0.5
o5
o0
v178
n-1
n2
o2
n0.5
o5
o0
v179
n-1
n2
x0
r
4 1.0
4 1.0
4 1.0
4 1.0
4 1.0
4 1.0
4 1.0
4 1.0
4 1.0
4 1.0
4 1.0
4 1.0
4 1.0
4 1.0
4 1.0
4 1.0
4 1.0
4 1.0
4 1.0
4 1.0
4 1.0
4 1.0
4 1.0
4 1.0
4 1.0
4 1.0
4 1.0
4 1.0
4 1.0
4 1.0
4 1.0
4 1.0
4 1.0
4 1.0
4 1.0
4 1.0
4 1.0
4 1.0
4 1.0
4 1.0
4 1.0
4 1.0
4 1.0
4 1.0
4 1.0
4 1.0
4 1.0
4 1.0
4 1.0
4 1.0
4 1.0
4 1.0
4 1.0
4 1.0
4 1.0
4 1.0
4 1.0
4 1.0
4 1.0
4 1.0
4 1.0
4 1.0
4 1.0
4 1.0
4 1.0
4 1.0
4 1.0
4 1.0
4 1.0
4 1.0
4 1.0
4 1.0
4 1.0
4 1.0
4 1.0
4 1.0
4 1.0
4 1.0
4 1.0
4 1.0
4 1.0
4 1.0
4 1.0
4 1.0
4 1.0
4 1.0
4 1.0
4 1.0
4 1.0
4 1.0
4 1.0
4 1.0
4 1.0
4 1.0
4 1.0
4 1.0
b
3
3
3
3
3
3
3
3
3
3
3
3
3
3
3
3
3
3
3
3
3
3
3
3
3
3
3
3
3
3
3
3
3
3
3
3
3
3
3
3
3
3
3
3
3
3
3
3
3
3
3
3
3
3
3
3
3
3
3
3
3
3
3
3
3
3
3
3
3
3
3
3
3
3
3
3
3
3
3
3
3
3
3
3
3
3
3
3
3
3
3
3
3
3
3
3
3
3
3
3
3
3
3
3
3
3
3
3
3
3
3
3
3
3
3
3
3
3
3
3
3
3
3
3
3
3
3
3
3
3
3
3
3
3
3
3
3
3
3
3
3
3
3
3
3
3
3
3
3
3
3
3
3
3
3
3
3
3
3
3
3
3
3
3
3
3
3
3
3
3
3
3
3
3
3
3
3
3
3
3
3
3
3
3
3
3
3
3
3
3
3
3
3
3
3
3
3
3
3
3
3
3
3
3
3
3
3
3
3
3
3
3
k211
1
3
5
7
9
11
13
15
17
18
20
22
24
26
28
30
32
34
36
38
40
42
44
46
48
50
52
54
56
58
60
62
64
66
68
70
72
74
76
78
80
82
84
86
88
90
92
94
96
98
100
102
104
106
108
110
112
114
116
118
120
122
124
126
128
130
132
134
136
138
140
142
144
146
148
150
152
154
156
158
159
161
163
165
167
169
171
173
175
176
177
179
181
183
185
187
189
191
192
194
196
198
200
202
204
206
208
210
212
214
216
218
220
222
224
226
228
230
232
234
236
238
240
242
244
246
248
250
252
254
256
258
260
262
264
266
268
270
272
274
276
278
280
282
284
286
288
290
292
294
296
298
300
302
304
306
308
310
312
314
316
318
320
322
324
326
328
330
332
334
336
337
339
341
343
345
347
349
351
352
353
354
355
356
357
358
359
360
361
362
363
364
365
366
367
368
369
370
371
372
373
374
375
376
377
378
379
380
381
382
383
J0 4
1 -1
11 1
99 -1
100 1
J1 4
2 -1
12 1
100 -1
101 1
J2 4
3 -1
13 1
101 -1
102 1
J3 4
4 -1
14 1
102 -1
103 1
J4 4
5 -1
15 1
103 -1
104 1
J5 4
6 -1
16 1
104 -1
105 1
J6 4
7 -1
17 1
105 -1
106 1
J7 4
8 -1
18 1
106 -1
107 1
J8 4
11 -1
21 1
108 -1
109 1
J9 4
12 -1
22 1
109 -1
110 1
J10 4
13 -1
23 1
110 -1
111 1
J11 4
14 -1
24 1
111 -1
112 1
J12 4
15 -1
25 1
112 -1
113 1
J13 4
16 -1
26 1
113 -1
114 1
J14 4
17 -1
27 1
114 -1
115 1
J15 4
18 -1
28 1
115 -1
116 1
J16 4
21 -1
31 1
117 -1
118 1
J17 4
22 -1
32 1
118 -1
119 1
J18 4
23 -1
33 1
119 -1
120 1
J19 4
24 -1
34 1
120 -1
121 1
J20 4
25 -1
35 1
121 -1
122 1
J21 4
26 -1
36 1
122 -1
123 1
J22 4
27 -1
37 1
123 -1
124 1
J23 4
28 -1
38 1
124 -1
125 1
J24 4
31 -1
41 1
126 -1
127 1
J25 4
32 -1
42 1
127 -1
128 1
J26 4
33 -1
43 1
128 -1
129 1
J27 4
34 -1
44 1
129 -1
130 1
J28 4
35 -1
45 1
130 -1
131 1
J29 4
36 -1
46 1
131 -1
132 1
J30 4
37 -1
47 1
132 -1
133 1
J31 4
38 -1
48 1
133 -1
134 1
J32 4
41 -1
51 1
135 -1
136 1
J33 4
42 -1
52 1
136 -1
137 1
J34 4
43 -1
53 1
137 -1
138 1
J35 4
44 -1
54 1
138 -1
139 1
J36 4
45 -1
55 1
139 -1
140 1
J37 4
46 -1
56 1
140 -1
141 1
J38 4
47 -1
57 1
141 -1
142 1
J39 4
48 -1
58 1
142 -1
143 1
J40 4
51 -1
61 1
144 -1
145 1
J41 4
52 -1
62 1
145 -1
146 1
J42 4
53 -1
63 1
146 -1
147 1
J43 4
54 -1
64 1
147 -1
148 1
J44 4
55 -1
65 1
148 -1
149 1
J45 4
56 -1
66 1
149 -1
150 1
J46 4
57 -1
67 1
150 -1
151 1
J47 4
58 -1
68 1
151 -1
152 1
J48 4
61 -1
71 1
153 -1
154 1
J49 4
62 -1
72 1
154 -1
155 1
J50 4
63 -1
73 1
155 -1
156 1
J51 4
64 -1
74 1
156 -1
157 1
J52 4
65 -1
75 1
157 -1
158 1
J53 4
66 -1
76 1
158 -1
159 1
J54 4
67 -1
77 1
159 -1
160 1
J55 4
68 -1
78 1
160 -1
161 1
J56 4
71 -1
81 1
162 -1
163 1
J57 4
72 -1
82 1
163 -1
164 1
J58 4
73 -1
83 1
164 -1
165 1
J59 4
74 -1
84 1
165 -1
166 1
J60 4
75 -1
85 1
166 -1
167 1
J61 4
76 -1
86 1
167 -1
168 1
J62 4
77 -1
87 1
168 -1
169 1
J63 4
78 -1
88 1
169 -1
170 1
J64 4
0 -1
180 1
10 1
99 1
J65 4
10 -1
182 1
20 1
108 1
J66 4
20 -1
184 1
30 1
117 1
J67 4
30 -1
186 1
40 1
126 1
J68 4
40 -1
188 1
50 1
135 1
J69 4
50 -1
190 1
60 1
144 1
J70 4
60 -1
192 1
70 1
153 1
J71 4
70 -1
194 1
80 1
162 1
J72 4
9 -1
19 1
181 1
107 -1
J73 4
19 -1
29 1
183 1
116 -1
J74 4
29 -1
39 1
185 1
125 -1
J75 4
39 -1
49 1
187 1
134 -1
J76 4
49 -1
59 1
189 1
143 -1
J77 4
59 -1
69 1
191 1
152 -1
J78 4
69 -1
79 1
193 1
161 -1
J79 4
79 -1
89 1
195 1
170 -1
J80 4
1 1
196 1
90 -1
91 1
J81 4
2 1
197 1
91 -1
92 1
J82 4
3 1
198 1
92 -1
93 1
J83 4
4 1
199 1
93 -1
94 1
J84 4
5 1
200 1
94 -1
95 1
J85 4
6 1
201 1
95 -1
96 1
J86 4
7 1
202 1
96 -1
97 1
J87 4
8 1
203 1
97 -1
98 1
J88 4
81 -1
171 -1
172 1
204 1
J89 4
82 -1
172 -1
173 1
205 1
J90 4
83 -1
173 -1
174 1
206 1
J91 4
84 -1
174 -1
175 1
207 1
J92 4
85 -1
175 -1
176 1
208 1
J93 4
86 -1
176 -1
177 1
209 1
J94 4
87 -1
177 -1
178 1
210 1
J95 4
88 -1
178 -1
179 1
211 1
G0 180
0 0
1 0
2 0
3 0
4 0
5 0
6 0
7 0
8 0
9 0
10 0
11 0
12 0
13 0
14 0
15 0
16 0
17 0
18 0
19 0
20 0
21 0
22 0
23 0
24 0
25 0
26 0
27 0
28 0
29 0
30 0
31 0
32 0
33 0
34 0
35 0
36 0
37 0
38 0
39 0
40 0
41 0
42 0
43 0
44 0
45 0
46 0
47 0
48 0
49 0
50 0
51 0
52 0
53 0
54 0
55 0
56 0
57 0
58 0
59 0
60 0
61 0
62 0
63 0
64 0
65 0
66 0
67 0
68 0
69 0
70 0
71 0
72 0
73 0
74 0
75 0
76 0
77 0
78 0
79 0
80 0
81 0
82 0
83 0
84 0
85 0
86 0
87 0
88 0
89 0
90 0
91 0
92 0
93 0
94 0
95 0
96 0
97 0
98 0
99 0
100 0
101 0
102 0
103 0
104 0
105 0
106 0
107 0
108 0
109 0
110 0
111 0
112 0
113 0
114 0
115 0
116 0
117 0
118 0
119 0
120 0
121 0
122 0
123 0
124 0
125 0
126 0
127 0
128 0
129 0
130 0
131 0
132 0
133 0
134 0
135 0
136 0
137 0
138 0
139 0
140 0
141 0
142 0
143 0
144 0
145 0
146 0
147 0
148 0
149 0
150 0
151 0
152 0
153 0
154 0
155 0
156 0
157 0
158 0
159 0
160 0
161 0
162 0
163 0
164 0
165 0
166 0
167 0
168 0
169 0
170 0
171 0
172 0
173 0
174 0
175 0
176 0
177 0
178 0
179 0
